(set-logic HORN)
(declare-fun state (Int Int Int Int Int Int Int Int Int (Array Int Int) (Array Int Int) Int Int Int Int Int Int Int Int Int Int Int Int Int Int Int (Array Int Int) (Array Int Int) Int Int Int Int Int Int Int Int Int Int Int Int Int Int Int Int Bool Bool Bool (Array Int Int)) Bool)
(assert (forall ((|A| Int) (|B| Int) (|C| Int) (|T1| Int) (|E| Int) (|F| Int) (|G| Int) (|H| Int) (|I| Int) (|J| (Array Int Int)) (|K| (Array Int Int)) (|L| Int) (|M| Int) (|N| Int) (|O| Int) (|P| Int) (|Q| Int) (|R| Int) (|U1| Int) (|T| Int) (|U| Int) (|V| Int) (|W| Int) (|X| Int) (|V1| Int) (|Z| Int) (|W1| (Array Int Int)) (|B1| (Array Int Int)) (|C1| Int) (|D1| Int) (|E1| Int) (|F1| Int) (|G1| Int) (|H1| Int) (|I1| Int) (|J1| Int) (|K1| Int) (|L1| Int) (|M1| Int) (|N1| Int) (|O1| Int) (|P1| Int) (|Q1| Int) (|R1| Int) (|S1| Bool) (|.loc.3| Bool) (|.loc.4| Bool) (|U1_0| (Array Int Int)) (|.x.329| Int) (|.x.328| Int) (|.x.327| Int) (|.x.326| Int) (|.x.325| (Array Int Int)) (|.x.323| Int) (|.x.321| Int) (|.x.320| Int) (|.x.319| Int) (|.x.318| Int) (|.x.317| Int) (|.x.315| Int) (|.x.314| Int) (|.x.313| Int) (|.x.312| Int) (|.x.311| Int) (|.x.310| Int) (|.x.309| Int) (|.x.308| (Array Int Int)) (|.x.306| Int) (|.x.305| Int) (|.x.304| Int) (|.x.303| Int) (|.x.302| Int) (|.x.300| Int) (|.x.298| Int) (|.x.299| Int) (|.loc.5| Bool) (|.loc.6| Bool) (|.x.334| Int) (|.x.340| Int) (|.x.331| Int) (|.x.337| Int) (|.x.330| Int) (|.x.332| Int) (|.x.338| Int) (|.x.339| Int) (|.x.307| (Array Int Int)) (|.x.324| (Array Int Int)) (|.x.333| Int) (|.x.341| Int) (|.x.316| Int) (|.x.322| Int) (|.x.301| Int) (|S1_6| Bool) (|.x.336| Int) (|.x.335| Int) (|.xtv.1| (Array Int Int))) (=> (and (and (not .loc.4) (not .loc.3)) (and (and (and (and (and (= J K) (not S1)) (= T1 E)) (= V1 Z)) (= W1 B1)) (= U1 T))) (state |A| |B| |C| |T1| |E| |F| |G| |H| |I| |J| |K| |L| |M| |N| |O| |P| |Q| |R| |U1| |T| |U| |V| |W| |X| |V1| |Z| |W1| |B1| |C1| |D1| |E1| |F1| |G1| |H1| |I1| |J1| |K1| |L1| |M1| |N1| |O1| |P1| |Q1| |R1| |S1| |.loc.3| |.loc.4| |U1_0|))))
(assert (forall ((|A| Int) (|B| Int) (|C| Int) (|T1| Int) (|E| Int) (|F| Int) (|G| Int) (|H| Int) (|I| Int) (|J| (Array Int Int)) (|K| (Array Int Int)) (|L| Int) (|M| Int) (|N| Int) (|O| Int) (|P| Int) (|Q| Int) (|R| Int) (|U1| Int) (|T| Int) (|U| Int) (|V| Int) (|W| Int) (|X| Int) (|V1| Int) (|Z| Int) (|W1| (Array Int Int)) (|B1| (Array Int Int)) (|C1| Int) (|D1| Int) (|E1| Int) (|F1| Int) (|G1| Int) (|H1| Int) (|I1| Int) (|J1| Int) (|K1| Int) (|L1| Int) (|M1| Int) (|N1| Int) (|O1| Int) (|P1| Int) (|Q1| Int) (|R1| Int) (|S1| Bool) (|.loc.3| Bool) (|.loc.4| Bool) (|U1_0| (Array Int Int)) (|.x.329| Int) (|.x.328| Int) (|.x.327| Int) (|.x.326| Int) (|.x.325| (Array Int Int)) (|.x.323| Int) (|.x.321| Int) (|.x.320| Int) (|.x.319| Int) (|.x.318| Int) (|.x.317| Int) (|.x.315| Int) (|.x.314| Int) (|.x.313| Int) (|.x.312| Int) (|.x.311| Int) (|.x.310| Int) (|.x.309| Int) (|.x.308| (Array Int Int)) (|.x.306| Int) (|.x.305| Int) (|.x.304| Int) (|.x.303| Int) (|.x.302| Int) (|.x.300| Int) (|.x.298| Int) (|.x.299| Int) (|.loc.5| Bool) (|.loc.6| Bool) (|.x.334| Int) (|.x.340| Int) (|.x.331| Int) (|.x.337| Int) (|.x.330| Int) (|.x.332| Int) (|.x.338| Int) (|.x.339| Int) (|.x.307| (Array Int Int)) (|.x.324| (Array Int Int)) (|.x.333| Int) (|.x.341| Int) (|.x.316| Int) (|.x.322| Int) (|.x.301| Int) (|S1_6| Bool) (|.x.336| Int) (|.x.335| Int) (|.xtv.1| (Array Int Int))) (=> (and (state |A| |B| |C| |T1| |E| |F| |G| |H| |I| |J| |K| |L| |M| |N| |O| |P| |Q| |R| |U1| |T| |U| |V| |W| |X| |V1| |Z| |W1| |B1| |C1| |D1| |E1| |F1| |G1| |H1| |I1| |J1| |K1| |L1| |M1| |N1| |O1| |P1| |Q1| |R1| |S1| |.loc.3| |.loc.4| |U1_0|) (let ((.def_59 (not .loc.3))) (let ((.def_160 (= .x.334 0))) (let ((.def_176 (= .x.331 0))) (let ((.def_178 (= .x.332 0))) (let ((.def_181 (= .x.337 0))) (let ((.def_183 (= .x.330 0))) (let ((.def_188 (and (= .x.334 .x.340) (and (= .x.340 (ite (or (not (= .x.331 .x.337)) (not (= .x.330 .x.332))) 1 0)) (and (or (not .def_176) (not .def_178)) (or (not .def_181) (not .def_183))))))) (let ((.def_197 (store U1_0 .x.338 1))) (let ((.def_233 (and (= (store (store J .x.338 4) .x.339 4) .x.307) (and (= (store .def_197 .x.339 1) .x.324) (and (= (select .def_197 .x.339) 0) (and (= (select U1_0 .x.338) 0) (and (= .x.333 0) (and (not (= .x.338 0)) (and (= .x.341 0) (and (= .x.330 .x.333) (and (= .x.331 .x.339) (and (= .x.332 .x.341) (and (= .x.337 .x.338) (and (not (= .x.339 0)) (and (not (<= .x.339 .x.320)) (not (<= .x.338 .x.320))))))))))))))))) (let ((.def_246 (or S1 (and (= U1_0 (store W1 0 0)) (and (and (= .x.316 0) (= .x.322 0)) (= .x.301 0)))))) (let ((.def_250 (= M1 .x.336))) (let ((.def_275 (= S1 S1_6))) (let ((.def_278 (= Q1 .x.340))) (let ((.def_283 (= K1 .x.334))) (let ((.def_302 (not .loc.6))) (let ((.def_312 (and .def_275 (and .loc.5 (and .def_59 (and .def_246 .def_250)))))) (let ((.def_317 (or .def_233 S1_6))) (and (and (not .loc.4) (and (= F1 .x.329) (and (= E1 .x.328) (and (= D1 .x.327) (and (= C1 .x.326) (and (= B1 .x.325) (and (= Z .x.323) (and (= X .x.321) (and (= W .x.320) (and (= V .x.319) (and (= U .x.318) (and (= T .x.317) (and (= R .x.315) (and (= Q .x.314) (and (= P .x.313) (and (= O .x.312) (and (= N .x.311) (and (= M .x.310) (and (= L .x.309) (and (= K .x.308) (and (= I .x.306) (and (= H .x.305) (and (= G .x.304) (and (= F .x.303) (and (= E .x.302) (and (= C .x.300) (and (= A .x.298) (= B .x.299)))))))))))))))))))))))))))) (or (or (or (and (and (not .loc.5) .loc.6) (or (and .def_59 (and (or S1 .def_160) (and (or S1 .def_188) (and (or S1 .def_233) (and (and .def_246 S1_6) .def_250))))) (and (or S1 (= .x.335 0)) (and (= T1 .x.301) (and (= J .x.307) (and (= U1 .x.316) (and (= V1 .x.322) (and (= W1 .x.324) (and (= G1 .x.330) (and (= H1 .x.331) (and (= I1 .x.332) (and (= J1 .x.333) (and (and (= N1 .x.337) (and (= O1 .x.338) (and (= P1 .x.339) (and (and (= R1 .x.341) (and (and .loc.3 (or S1_6 (= .x.336 .x.335))) .def_275)) .def_278)))) .def_283))))))))))))) (and (and .loc.5 (and .def_59 (and .def_250 (and .def_246 (and S1 S1_6))))) .def_302)) (and (and (or (or S1_6 (and .def_181 .def_183)) (and .def_176 .def_178)) (and .def_302 (and .def_283 (and .def_278 .def_312)))) .def_317)) (and (or .def_188 S1_6) (and (or S1_6 (not .def_160)) (and .def_317 (and .def_302 .def_312)))))))))))))))))))))))) (state |.x.298| |.x.299| |.x.300| |.x.301| |.x.302| |.x.303| |.x.304| |.x.305| |.x.306| |.x.307| |.x.308| |.x.309| |.x.310| |.x.311| |.x.312| |.x.313| |.x.314| |.x.315| |.x.316| |.x.317| |.x.318| |.x.319| |.x.320| |.x.321| |.x.322| |.x.323| |.x.324| |.x.325| |.x.326| |.x.327| |.x.328| |.x.329| |.x.330| |.x.331| |.x.332| |.x.333| |.x.334| |.x.335| |.x.336| |.x.337| |.x.338| |.x.339| |.x.340| |.x.341| |S1_6| |.loc.5| |.loc.6| |.xtv.1|))))
(assert (forall ((|A| Int) (|B| Int) (|C| Int) (|T1| Int) (|E| Int) (|F| Int) (|G| Int) (|H| Int) (|I| Int) (|J| (Array Int Int)) (|K| (Array Int Int)) (|L| Int) (|M| Int) (|N| Int) (|O| Int) (|P| Int) (|Q| Int) (|R| Int) (|U1| Int) (|T| Int) (|U| Int) (|V| Int) (|W| Int) (|X| Int) (|V1| Int) (|Z| Int) (|W1| (Array Int Int)) (|B1| (Array Int Int)) (|C1| Int) (|D1| Int) (|E1| Int) (|F1| Int) (|G1| Int) (|H1| Int) (|I1| Int) (|J1| Int) (|K1| Int) (|L1| Int) (|M1| Int) (|N1| Int) (|O1| Int) (|P1| Int) (|Q1| Int) (|R1| Int) (|S1| Bool) (|.loc.3| Bool) (|.loc.4| Bool) (|U1_0| (Array Int Int)) (|.x.329| Int) (|.x.328| Int) (|.x.327| Int) (|.x.326| Int) (|.x.325| (Array Int Int)) (|.x.323| Int) (|.x.321| Int) (|.x.320| Int) (|.x.319| Int) (|.x.318| Int) (|.x.317| Int) (|.x.315| Int) (|.x.314| Int) (|.x.313| Int) (|.x.312| Int) (|.x.311| Int) (|.x.310| Int) (|.x.309| Int) (|.x.308| (Array Int Int)) (|.x.306| Int) (|.x.305| Int) (|.x.304| Int) (|.x.303| Int) (|.x.302| Int) (|.x.300| Int) (|.x.298| Int) (|.x.299| Int) (|.loc.5| Bool) (|.loc.6| Bool) (|.x.334| Int) (|.x.340| Int) (|.x.331| Int) (|.x.337| Int) (|.x.330| Int) (|.x.332| Int) (|.x.338| Int) (|.x.339| Int) (|.x.307| (Array Int Int)) (|.x.324| (Array Int Int)) (|.x.333| Int) (|.x.341| Int) (|.x.316| Int) (|.x.322| Int) (|.x.301| Int) (|S1_6| Bool) (|.x.336| Int) (|.x.335| Int) (|.xtv.1| (Array Int Int))) (=> (state |A| |B| |C| |T1| |E| |F| |G| |H| |I| |J| |K| |L| |M| |N| |O| |P| |Q| |R| |U1| |T| |U| |V| |W| |X| |V1| |Z| |W1| |B1| |C1| |D1| |E1| |F1| |G1| |H1| |I1| |J1| |K1| |L1| |M1| |N1| |O1| |P1| |Q1| |R1| |S1| |.loc.3| |.loc.4| |U1_0|) (not (and S1 (and .loc.4 (not .loc.3)))))))
(check-sat)
